\* Logistics_Optimization *\
Minimize
OBJ: 0.5 I_北京 + 0.6 I_大同 + 0.9 I_太原 + 0.7 I_济南 + 0.8 I_西安 + 0.7 I_郑州
 + 576 x_('北京',_'大同',_'中型') + 704 x_('北京',_'大同',_'大型')
 + 540 x_('北京',_'太原',_'中型') + 660 x_('北京',_'太原',_'大型')
 + 720 x_('北京',_'济南',_'中型') + 880 x_('北京',_'济南',_'大型')
 + 1620 x_('北京',_'西安',_'中型') + 1980 x_('北京',_'西安',_'大型')
 + 1080 x_('北京',_'郑州',_'中型') + 1320 x_('北京',_'郑州',_'大型')
 + 576 x_('大同',_'北京',_'中型') + 704 x_('大同',_'北京',_'大型')
 + 270 x_('大同',_'太原',_'中型') + 330 x_('大同',_'太原',_'大型')
 + 1080 x_('大同',_'济南',_'中型') + 1320 x_('大同',_'济南',_'大型')
 + 900 x_('大同',_'西安',_'中型') + 1100 x_('大同',_'西安',_'大型')
 + 684 x_('大同',_'郑州',_'中型') + 836 x_('大同',_'郑州',_'大型')
 + 540 x_('太原',_'北京',_'中型') + 660 x_('太原',_'北京',_'大型')
 + 270 x_('太原',_'大同',_'中型') + 330 x_('太原',_'大同',_'大型')
 + 990 x_('太原',_'济南',_'中型') + 1210 x_('太原',_'济南',_'大型')
 + 1080 x_('太原',_'西安',_'中型') + 1320 x_('太原',_'西安',_'大型')
 + 900 x_('太原',_'郑州',_'中型') + 1100 x_('太原',_'郑州',_'大型')
 + 720 x_('济南',_'北京',_'中型') + 880 x_('济南',_'北京',_'大型')
 + 1080 x_('济南',_'大同',_'中型') + 1320 x_('济南',_'大同',_'大型')
 + 990 x_('济南',_'太原',_'中型') + 1210 x_('济南',_'太原',_'大型')
 + 1440 x_('济南',_'西安',_'中型') + 1760 x_('济南',_'西安',_'大型')
 + 756 x_('济南',_'郑州',_'中型') + 924 x_('济南',_'郑州',_'大型')
 + 1620 x_('西安',_'北京',_'中型') + 1980 x_('西安',_'北京',_'大型')
 + 900 x_('西安',_'大同',_'中型') + 1100 x_('西安',_'大同',_'大型')
 + 1080 x_('西安',_'太原',_'中型') + 1320 x_('西安',_'太原',_'大型')
 + 1440 x_('西安',_'济南',_'中型') + 1760 x_('西安',_'济南',_'大型')
 + 720 x_('西安',_'郑州',_'中型') + 880 x_('西安',_'郑州',_'大型')
 + 1080 x_('郑州',_'北京',_'中型') + 1320 x_('郑州',_'北京',_'大型')
 + 684 x_('郑州',_'大同',_'中型') + 836 x_('郑州',_'大同',_'大型')
 + 900 x_('郑州',_'太原',_'中型') + 1100 x_('郑州',_'太原',_'大型')
 + 756 x_('郑州',_'济南',_'中型') + 924 x_('郑州',_'济南',_'大型')
 + 720 x_('郑州',_'西安',_'中型') + 880 x_('郑州',_'西安',_'大型') + 300 z_中型 + 420 z_大型
Subject To
_C1: - Q_('北京',_'太原') - Q_('大同',_'太原') + Q_('太原',_'北京') + Q_('太原',_'大同')
 + Q_('太原',_'济南') + Q_('太原',_'西安') + Q_('太原',_'郑州') - Q_('济南',_'太原')
 - Q_('西安',_'太原') - Q_('郑州',_'太原') = -1030
_C10: Q_('太原',_'西安') - 300 x_('太原',_'西安',_'大型') <= 0
_C11: Q_('太原',_'北京') - 200 x_('太原',_'北京',_'中型') <= 0
_C12: Q_('太原',_'北京') - 300 x_('太原',_'北京',_'大型') <= 0
_C13: Q_('太原',_'大同') - 200 x_('太原',_'大同',_'中型') <= 0
_C14: Q_('太原',_'大同') - 300 x_('太原',_'大同',_'大型') <= 0
_C15: Q_('太原',_'济南') - 200 x_('太原',_'济南',_'中型') <= 0
_C16: Q_('太原',_'济南') - 300 x_('太原',_'济南',_'大型') <= 0
_C17: Q_('郑州',_'太原') - 200 x_('郑州',_'太原',_'中型') <= 0
_C18: Q_('郑州',_'太原') - 300 x_('郑州',_'太原',_'大型') <= 0
_C19: Q_('郑州',_'西安') - 200 x_('郑州',_'西安',_'中型') <= 0
_C2: - Q_('北京',_'郑州') - Q_('大同',_'郑州') - Q_('太原',_'郑州') - Q_('济南',_'郑州')
 - Q_('西安',_'郑州') + Q_('郑州',_'北京') + Q_('郑州',_'大同') + Q_('郑州',_'太原')
 + Q_('郑州',_'济南') + Q_('郑州',_'西安') = 220
_C20: Q_('郑州',_'西安') - 300 x_('郑州',_'西安',_'大型') <= 0
_C21: Q_('郑州',_'北京') - 200 x_('郑州',_'北京',_'中型') <= 0
_C22: Q_('郑州',_'北京') - 300 x_('郑州',_'北京',_'大型') <= 0
_C23: Q_('郑州',_'大同') - 200 x_('郑州',_'大同',_'中型') <= 0
_C24: Q_('郑州',_'大同') - 300 x_('郑州',_'大同',_'大型') <= 0
_C25: Q_('郑州',_'济南') - 200 x_('郑州',_'济南',_'中型') <= 0
_C26: Q_('郑州',_'济南') - 300 x_('郑州',_'济南',_'大型') <= 0
_C27: Q_('西安',_'太原') - 200 x_('西安',_'太原',_'中型') <= 0
_C28: Q_('西安',_'太原') - 300 x_('西安',_'太原',_'大型') <= 0
_C29: Q_('西安',_'郑州') - 200 x_('西安',_'郑州',_'中型') <= 0
_C3: - Q_('北京',_'西安') - Q_('大同',_'西安') - Q_('太原',_'西安') - Q_('济南',_'西安')
 + Q_('西安',_'北京') + Q_('西安',_'大同') + Q_('西安',_'太原') + Q_('西安',_'济南')
 + Q_('西安',_'郑州') - Q_('郑州',_'西安') = 190
_C30: Q_('西安',_'郑州') - 300 x_('西安',_'郑州',_'大型') <= 0
_C31: Q_('西安',_'北京') - 200 x_('西安',_'北京',_'中型') <= 0
_C32: Q_('西安',_'北京') - 300 x_('西安',_'北京',_'大型') <= 0
_C33: Q_('西安',_'大同') - 200 x_('西安',_'大同',_'中型') <= 0
_C34: Q_('西安',_'大同') - 300 x_('西安',_'大同',_'大型') <= 0
_C35: Q_('西安',_'济南') - 200 x_('西安',_'济南',_'中型') <= 0
_C36: Q_('西安',_'济南') - 300 x_('西安',_'济南',_'大型') <= 0
_C37: Q_('北京',_'太原') - 200 x_('北京',_'太原',_'中型') <= 0
_C38: Q_('北京',_'太原') - 300 x_('北京',_'太原',_'大型') <= 0
_C39: Q_('北京',_'郑州') - 200 x_('北京',_'郑州',_'中型') <= 0
_C4: Q_('北京',_'大同') + Q_('北京',_'太原') + Q_('北京',_'济南') + Q_('北京',_'西安')
 + Q_('北京',_'郑州') - Q_('大同',_'北京') - Q_('太原',_'北京') - Q_('济南',_'北京')
 - Q_('西安',_'北京') - Q_('郑州',_'北京') = 210
_C40: Q_('北京',_'郑州') - 300 x_('北京',_'郑州',_'大型') <= 0
_C41: Q_('北京',_'西安') - 200 x_('北京',_'西安',_'中型') <= 0
_C42: Q_('北京',_'西安') - 300 x_('北京',_'西安',_'大型') <= 0
_C43: Q_('北京',_'大同') - 200 x_('北京',_'大同',_'中型') <= 0
_C44: Q_('北京',_'大同') - 300 x_('北京',_'大同',_'大型') <= 0
_C45: Q_('北京',_'济南') - 200 x_('北京',_'济南',_'中型') <= 0
_C46: Q_('北京',_'济南') - 300 x_('北京',_'济南',_'大型') <= 0
_C47: Q_('大同',_'太原') - 200 x_('大同',_'太原',_'中型') <= 0
_C48: Q_('大同',_'太原') - 300 x_('大同',_'太原',_'大型') <= 0
_C49: Q_('大同',_'郑州') - 200 x_('大同',_'郑州',_'中型') <= 0
_C5: - Q_('北京',_'大同') + Q_('大同',_'北京') + Q_('大同',_'太原') + Q_('大同',_'济南')
 + Q_('大同',_'西安') + Q_('大同',_'郑州') - Q_('太原',_'大同') - Q_('济南',_'大同')
 - Q_('西安',_'大同') - Q_('郑州',_'大同') = 160
_C50: Q_('大同',_'郑州') - 300 x_('大同',_'郑州',_'大型') <= 0
_C51: Q_('大同',_'西安') - 200 x_('大同',_'西安',_'中型') <= 0
_C52: Q_('大同',_'西安') - 300 x_('大同',_'西安',_'大型') <= 0
_C53: Q_('大同',_'北京') - 200 x_('大同',_'北京',_'中型') <= 0
_C54: Q_('大同',_'北京') - 300 x_('大同',_'北京',_'大型') <= 0
_C55: Q_('大同',_'济南') - 200 x_('大同',_'济南',_'中型') <= 0
_C56: Q_('大同',_'济南') - 300 x_('大同',_'济南',_'大型') <= 0
_C57: Q_('济南',_'太原') - 200 x_('济南',_'太原',_'中型') <= 0
_C58: Q_('济南',_'太原') - 300 x_('济南',_'太原',_'大型') <= 0
_C59: Q_('济南',_'郑州') - 200 x_('济南',_'郑州',_'中型') <= 0
_C6: - Q_('北京',_'济南') - Q_('大同',_'济南') - Q_('太原',_'济南') + Q_('济南',_'北京')
 + Q_('济南',_'大同') + Q_('济南',_'太原') + Q_('济南',_'西安') + Q_('济南',_'郑州')
 - Q_('西安',_'济南') - Q_('郑州',_'济南') = 250
_C60: Q_('济南',_'郑州') - 300 x_('济南',_'郑州',_'大型') <= 0
_C61: Q_('济南',_'西安') - 200 x_('济南',_'西安',_'中型') <= 0
_C62: Q_('济南',_'西安') - 300 x_('济南',_'西安',_'大型') <= 0
_C63: Q_('济南',_'北京') - 200 x_('济南',_'北京',_'中型') <= 0
_C64: Q_('济南',_'北京') - 300 x_('济南',_'北京',_'大型') <= 0
_C65: Q_('济南',_'大同') - 200 x_('济南',_'大同',_'中型') <= 0
_C66: Q_('济南',_'大同') - 300 x_('济南',_'大同',_'大型') <= 0
_C67: Q_('北京',_'大同') + Q_('北京',_'太原') + Q_('北京',_'济南') + Q_('北京',_'西安')
 + Q_('北京',_'郑州') + Q_('大同',_'北京') + Q_('大同',_'太原') + Q_('大同',_'济南')
 + Q_('大同',_'西安') + Q_('大同',_'郑州') + Q_('太原',_'北京') + Q_('太原',_'大同')
 + Q_('太原',_'济南') + Q_('太原',_'西安') + Q_('太原',_'郑州') + Q_('济南',_'北京')
 + Q_('济南',_'大同') + Q_('济南',_'太原') + Q_('济南',_'西安') + Q_('济南',_'郑州')
 + Q_('西安',_'北京') + Q_('西安',_'大同') + Q_('西安',_'太原') + Q_('西安',_'济南')
 + Q_('西安',_'郑州') + Q_('郑州',_'北京') + Q_('郑州',_'大同') + Q_('郑州',_'太原')
 + Q_('郑州',_'济南') + Q_('郑州',_'西安') - 200 z_中型 <= 0
_C68: Q_('北京',_'大同') + Q_('北京',_'太原') + Q_('北京',_'济南') + Q_('北京',_'西安')
 + Q_('北京',_'郑州') + Q_('大同',_'北京') + Q_('大同',_'太原') + Q_('大同',_'济南')
 + Q_('大同',_'西安') + Q_('大同',_'郑州') + Q_('太原',_'北京') + Q_('太原',_'大同')
 + Q_('太原',_'济南') + Q_('太原',_'西安') + Q_('太原',_'郑州') + Q_('济南',_'北京')
 + Q_('济南',_'大同') + Q_('济南',_'太原') + Q_('济南',_'西安') + Q_('济南',_'郑州')
 + Q_('西安',_'北京') + Q_('西安',_'大同') + Q_('西安',_'太原') + Q_('西安',_'济南')
 + Q_('西安',_'郑州') + Q_('郑州',_'北京') + Q_('郑州',_'大同') + Q_('郑州',_'太原')
 + Q_('郑州',_'济南') + Q_('郑州',_'西安') - 300 z_大型 <= 0
_C69: I_太原 <= 3000
_C7: Q_('太原',_'郑州') - 200 x_('太原',_'郑州',_'中型') <= 0
_C70: I_郑州 <= 1100
_C71: I_西安 <= 1000
_C72: I_北京 <= 1200
_C73: I_大同 <= 800
_C74: I_济南 <= 1200
_C75: 4.5 x_('北京',_'大同',_'中型') + 3.5 x_('北京',_'太原',_'中型')
 + 4.5 x_('北京',_'济南',_'中型') + 5 x_('北京',_'西安',_'中型') + 4 x_('北京',_'郑州',_'中型')
 + 4.5 x_('大同',_'北京',_'中型') + 1.5 x_('大同',_'太原',_'中型')
 + 5 x_('大同',_'济南',_'中型') + 4 x_('大同',_'西安',_'中型') + 3.5 x_('大同',_'郑州',_'中型')
 + 3.5 x_('太原',_'北京',_'中型') + 1.5 x_('太原',_'大同',_'中型')
 + 4.5 x_('太原',_'济南',_'中型') + 4 x_('太原',_'西安',_'中型') + 3 x_('太原',_'郑州',_'中型')
 + 4.5 x_('济南',_'北京',_'中型') + 5 x_('济南',_'大同',_'中型')
 + 4.5 x_('济南',_'太原',_'中型') + 6 x_('济南',_'西安',_'中型')
 + 3.5 x_('济南',_'郑州',_'中型') + 5 x_('西安',_'北京',_'中型') + 4 x_('西安',_'大同',_'中型')
 + 4 x_('西安',_'太原',_'中型') + 6 x_('西安',_'济南',_'中型') + 2.5 x_('西安',_'郑州',_'中型')
 + 4 x_('郑州',_'北京',_'中型') + 3.5 x_('郑州',_'大同',_'中型') + 3 x_('郑州',_'太原',_'中型')
 + 3.5 x_('郑州',_'济南',_'中型') + 2.5 x_('郑州',_'西安',_'中型') - 8 z_中型 <= 0
_C76: 4.5 x_('北京',_'大同',_'大型') + 3.5 x_('北京',_'太原',_'大型')
 + 4.5 x_('北京',_'济南',_'大型') + 5 x_('北京',_'西安',_'大型') + 4 x_('北京',_'郑州',_'大型')
 + 4.5 x_('大同',_'北京',_'大型') + 1.5 x_('大同',_'太原',_'大型')
 + 5 x_('大同',_'济南',_'大型') + 4 x_('大同',_'西安',_'大型') + 3.5 x_('大同',_'郑州',_'大型')
 + 3.5 x_('太原',_'北京',_'大型') + 1.5 x_('太原',_'大同',_'大型')
 + 4.5 x_('太原',_'济南',_'大型') + 4 x_('太原',_'西安',_'大型') + 3 x_('太原',_'郑州',_'大型')
 + 4.5 x_('济南',_'北京',_'大型') + 5 x_('济南',_'大同',_'大型')
 + 4.5 x_('济南',_'太原',_'大型') + 6 x_('济南',_'西安',_'大型')
 + 3.5 x_('济南',_'郑州',_'大型') + 5 x_('西安',_'北京',_'大型') + 4 x_('西安',_'大同',_'大型')
 + 4 x_('西安',_'太原',_'大型') + 6 x_('西安',_'济南',_'大型') + 2.5 x_('西安',_'郑州',_'大型')
 + 4 x_('郑州',_'北京',_'大型') + 3.5 x_('郑州',_'大同',_'大型') + 3 x_('郑州',_'太原',_'大型')
 + 3.5 x_('郑州',_'济南',_'大型') + 2.5 x_('郑州',_'西安',_'大型') - 8 z_大型 <= 0
_C8: Q_('太原',_'郑州') - 300 x_('太原',_'郑州',_'大型') <= 0
_C9: Q_('太原',_'西安') - 200 x_('太原',_'西安',_'中型') <= 0
Binaries
x_('北京',_'大同',_'中型')
x_('北京',_'大同',_'大型')
x_('北京',_'太原',_'中型')
x_('北京',_'太原',_'大型')
x_('北京',_'济南',_'中型')
x_('北京',_'济南',_'大型')
x_('北京',_'西安',_'中型')
x_('北京',_'西安',_'大型')
x_('北京',_'郑州',_'中型')
x_('北京',_'郑州',_'大型')
x_('大同',_'北京',_'中型')
x_('大同',_'北京',_'大型')
x_('大同',_'太原',_'中型')
x_('大同',_'太原',_'大型')
x_('大同',_'济南',_'中型')
x_('大同',_'济南',_'大型')
x_('大同',_'西安',_'中型')
x_('大同',_'西安',_'大型')
x_('大同',_'郑州',_'中型')
x_('大同',_'郑州',_'大型')
x_('太原',_'北京',_'中型')
x_('太原',_'北京',_'大型')
x_('太原',_'大同',_'中型')
x_('太原',_'大同',_'大型')
x_('太原',_'济南',_'中型')
x_('太原',_'济南',_'大型')
x_('太原',_'西安',_'中型')
x_('太原',_'西安',_'大型')
x_('太原',_'郑州',_'中型')
x_('太原',_'郑州',_'大型')
x_('济南',_'北京',_'中型')
x_('济南',_'北京',_'大型')
x_('济南',_'大同',_'中型')
x_('济南',_'大同',_'大型')
x_('济南',_'太原',_'中型')
x_('济南',_'太原',_'大型')
x_('济南',_'西安',_'中型')
x_('济南',_'西安',_'大型')
x_('济南',_'郑州',_'中型')
x_('济南',_'郑州',_'大型')
x_('西安',_'北京',_'中型')
x_('西安',_'北京',_'大型')
x_('西安',_'大同',_'中型')
x_('西安',_'大同',_'大型')
x_('西安',_'太原',_'中型')
x_('西安',_'太原',_'大型')
x_('西安',_'济南',_'中型')
x_('西安',_'济南',_'大型')
x_('西安',_'郑州',_'中型')
x_('西安',_'郑州',_'大型')
x_('郑州',_'北京',_'中型')
x_('郑州',_'北京',_'大型')
x_('郑州',_'大同',_'中型')
x_('郑州',_'大同',_'大型')
x_('郑州',_'太原',_'中型')
x_('郑州',_'太原',_'大型')
x_('郑州',_'济南',_'中型')
x_('郑州',_'济南',_'大型')
x_('郑州',_'西安',_'中型')
x_('郑州',_'西安',_'大型')
z_中型
z_大型
End
